
  12    4
  10   10   10   10

   0   0   0   0   0   2 2 4 
   4  10  10  10  10   2 5 3 
   8  10  10  10  10   2 7 6 
   6  10  10  10  10   2 7 6 
   1  10  10  10  10   2 9 7 
   7  10  10  10  10   2 9 8 
   9  10  10  10  10   1 8 
  10  10  10  10  10   2 11 10 
   5  10  10  10  10   2 11 10 
   3  10  10  10  10   1 12
   7  10  10  10  10   1 12
   0   0   0   0   0   0 
